
Gurobi 9.1.2 (win64) logging started Tue Dec  7 11:47:12 2021

Gurobi Optimizer version 9.1.2 build v9.1.2rc0 (win64)
Thread count: 8 physical cores, 8 logical processors, using up to 8 threads
Optimize a model with 1 rows, 34 columns and 33 nonzeros
Model fingerprint: 0x86f7f260
Variable types: 1 continuous, 33 integer (33 binary)
Coefficient statistics:
  Matrix range     [2e+00, 1e+01]
  Objective range  [1e+00, 1e+00]
  Bounds range     [2e+00, 2e+00]
  RHS range        [1e+01, 1e+01]
Presolve time: 0.00s
Presolved: 1 rows, 34 columns, 33 nonzeros
Variable types: 1 continuous, 33 integer (33 binary)

Root simplex log...

Iteration    Objective       Primal Inf.    Dual Inf.      Time
       0   -2.2140309e+00   2.077810e-01   0.000000e+00     15s
       3   -2.2140309e+00   0.000000e+00   0.000000e+00     15s

Root relaxation: objective -2.214031e+00, 3 iterations, 0.00 seconds

    Nodes    |    Current Node    |     Objective Bounds      |     Work
 Expl Unexpl |  Obj  Depth IntInf | Incumbent    BestBd   Gap | It/Node Time

     0     0   -2.21403    0    3          -   -2.21403      -     -   14s
H    0     0                       0.9311324   -2.21403   338%     -   14s
H    0     0                      -2.2140309   -2.21403  0.00%     -   15s

Cutting planes:
  Lazy constraints: 2

Explored 1 nodes (8 simplex iterations) in 15.03 seconds
Thread count was 8 (of 8 available processors)

Solution count 2: -2.21403 0.931132 
No other solutions better than -2.21403

Optimal solution found (tolerance 1.00e-04)
Best objective -2.214030936941e+00, best bound -2.214030936941e+00, gap 0.0000%

User-callback calls 75, time in user-callback 18.73 sec
